db/data/127152287016191195731946410717293377008.z3.out
-------------------
2500.148062469
